HUN,8,6,828
3,26,0,6,4,20,5,28,1,28,2,29
2,8,4,8,3,13,5,23,1,3,0,3
5,4,4,10,0,13,3,19,1,28,2,19
5,13,4,8,3,30,1,1,2,1,0,17
3,13,5,1,1,29,4,24,2,22,0,15
4,18,0,4,5,24,3,6,2,26,1,21
4,2,0,25,3,24,1,17,5,13,2,15
3,16,2,29,4,11,0,17,5,8,1,12
